TOUR_SECTION
1
197
107
39
35
53
58
106
31
117
169
23
134
188
183
9
105
24
129
48
2
42
49
122
201
126
7
179
68
114
62
181
162
95
96
113
8
86
47
14
84
94
170
139
83
74
70
151
91
3
125
121
43
198
156
120
160
150
109
11
138
25
194
32
115
132
85
99
45
79
60
52
186
124
159
177
22
90
66
15
51
40
104
57
67
64
185
168
142
33
152
143
192
61
184
82
196
140
101
17
100
195
4
80
118
108
154
123
37
19
5
147
6
193
13
16
180
41
92
189
12
75
111
131
20
28
200
128
69
187
136
174
26
21
44
175
34
171
133
176
59
78
145
27
164
77
148
158
130
89
191
163
161
110
73
146
157
72
30
137
65
46
119
127
165
172
167
10
38
116
153
199
88
155
149
178
93
36
18
144
56
173
81
76
103
141
135
190
102
29
112
50
97
98
55
54
71
63
182
87
166
-1
EOF